NAME : B-n50-k8.722024.tour
COMMENT : Length = 722024
COMMENT : Found by LKH [Keld Helsgaun] Sun Dec 17 23:47:14 2017
TYPE : TOUR
DIMENSION : 57
TOUR_SECTION
1
10
50
25
6
53
36
2
22
9
43
18
56
3
8
26
5
48
27
19
57
15
33
29
30
20
51
23
39
47
42
46
40
55
35
49
41
38
13
34
37
44
12
17
52
4
14
24
11
16
54
45
7
32
31
21
28
-1
EOF
